LPFile/soft3.lp
Minimize
+ 3.0 x83 + 3.0 x84 + 3.0 x86 + 3.0 x87 + 3.0 x88 + 3.0 x91 + 3.0 x92 + 3.0 x93 + 3.0 x124 + 3.0 x125 + 3.0 x126 + 3.0 x127 + 3.0 x128 + 3.0 x129 + 7.0 x212 + 7.0 x213 + 7.0 x214 + 7.0 x215 + 7.0 x216 + 7.0 x217 + 7.0 x218 + 7.0 x219 + 7.0 x220 + 7.0 x221 + 7.0 x222 + 7.0 x223 + 7.0 x224 + 7.0 x225 + 7.0 x226 + 7.0 x227 + 3.0 x238 + 3.0 x239 + 3.0 x240 + 3.0 x243 + 3.0 x244 + 3.0 x245 + 3.0 x294 + 3.0 x295 + 3.0 x296 + 3.0 x297 + 3.0 x298 + 3.0 x299 + 3.0 x300 + 3.0 x301 + 3.0 x372 + 3.0 x373 + 3.0 x374 + 3.0 x375 + 3.0 x376 + 3.0 x377 + 3.0 x378 + 3.0 x379 + 3.0 x554 + 3.0 x555 + 3.0 x556 + 3.0 x557 + 3.0 x568 + 3.0 x569 + 3.0 x596 + 3.0 x597 + 3.0 x600 + 3.0 x601 + 3.0 x608 + 3.0 x609 + 7.0 x633 + 7.0 x634 + 7.0 x635 + 7.0 x636 + 7.0 x637 + 7.0 x638 + 7.0 x639 + 7.0 x640 + 7.0 x641 + 7.0 x642 + 7.0 x643 + 7.0 x650 + 7.0 x651 + 7.0 x652 + 7.0 x653 + 7.0 x654 + 7.0 x655 + 3.0 x656 + 3.0 x657 + 3.0 x658 + 7.0 x659 + 7.0 x660 + 7.0 x661 + 10.0 x662 + 10.0 x663 + 10.0 x664 + 3.0 x784 + 3.0 x785 + 3.0 x786 + 3.0 x787 + 3.0 x788 + 3.0 x789 + 3.0 x790 + 3.0 x791 + 7.0 x881 + 7.0 x882 + 7.0 x883 + 7.0 x884 + 7.0 x885 + 7.0 x886 + 7.0 x887 + 7.0 x888 
Subject To
r_1: + x1 + x2 + x3 - 1.0 x610 - 0.9 x861  = 0
r_2: - 1.0 x1 + x4 + x5 + x6 - 1.0 x656 - 1.0 x659 - 1.0 x662  = 0
r_3: - 1.0 x2 + x7 + x8 + x9 - 1.0 x657 - 1.0 x660 - 1.0 x663  = 0
r_4: - 1.0 x3 + x10 + x11 + x12 - 1.0 x658 - 1.0 x661 - 1.0 x664  = 0
r_5: - 0.7 x4 + x13 + x14  = 0
r_6: - 0.3 x4 + x15 + x16 + x17  = 0
r_7: - 1.0 x5 - 1.0 x7 + x18 + x19 + x20  = 0
r_8: - 1.0 x6 - 1.0 x10 + x21 + x22 + x23  = 0
r_9: - 1.0 x8 + x24 + x25  = 0
r_10: - 1.0 x9 - 1.0 x11 + x26 + x27 + x28  = 0
r_11: - 1.0 x12 + x29 + x30 + x31  = 0
r_12: - 1.0 x13 - 0.7 x18 + x32 + x33  = 0
r_13: - 1.0 x14 - 1.0 x15 - 0.7 x21 + x34 + x35  = 0
r_14: - 1.0 x16 - 0.3 x18 + x36 + x37  = 0
r_15: - 1.0 x17 - 0.3 x21 + x38 + x39  = 0
r_16: - 1.0 x19 - 1.0 x24 + x40  = 0
r_17: - 1.0 x20 - 1.0 x22 - 1.0 x26 + x41 + x42  = 0
r_18: - 1.0 x23 - 1.0 x29 + x43 + x44  = 0
r_19: - 1.0 x25 - 1.0 x27 + x45  = 0
r_20: - 1.0 x28 - 1.0 x30 + x46 + x47  = 0
r_21: - 1.0 x31 + x48 + x49  = 0
r_22: - 1.0 x32 + x50  = 0
r_23: - 1.0 x33 - 1.0 x34 + x51 + x52  = 0
r_24: - 1.0 x35 + x53 + x54  = 0
r_25: - 1.0 x36 + x55  = 0
r_26: - 1.0 x37 - 1.0 x38 + x56 + x57  = 0
r_27: - 1.0 x39 + x58 + x59  = 0
r_28: - 1.0 x40 - 1.0 x41 + x60  = 0
r_29: - 1.0 x42 - 1.0 x43 + x61 + x62  = 0
r_30: - 1.0 x44 + x63 + x64  = 0
r_31: - 1.0 x45 - 1.0 x46 + x65  = 0
r_32: - 1.0 x47 - 1.0 x48 + x66 + x67  = 0
r_33: - 1.0 x49 + x68 + x69  = 0
r_34: - 0.9 x50 - 0.9 x51 + x70 + x71 - 1.0 x792 - 1.0 x793  = 0
r_35: - 0.1 x50 - 0.1 x51 + x72  = 0
r_36: - 0.9 x52 - 0.9 x53 + x73 + x74 + x75 - 1.0 x794 - 1.0 x795  = 0
r_37: - 0.1 x52 - 0.1 x53 + x76 + x77  = 0
r_38: - 0.9 x54 + x78 + x79 + x80 - 1.0 x796  = 0
r_39: - 0.1 x54 + x81 + x82  = 0
r_40: - 0.9 x55 - 0.9 x56 - 0.9 x60 - 0.9 x61 - 0.9 x65 - 0.9 x66 + x83 + x84 - 1.0 x797 - 1.0 x798 - 1.0 x802 - 1.0 x803 - 1.0 x807 - 1.0 x808  = 0
r_41: - 0.1 x55 - 0.1 x56 + x85  = 0
r_42: - 0.9 x57 - 0.9 x58 - 0.9 x62 - 0.9 x63 - 0.9 x67 - 0.9 x68 + x86 + x87 + x88 - 1.0 x799 - 1.0 x800 - 1.0 x804 - 1.0 x805 - 1.0 x809 - 1.0 x810  = 0
r_43: - 0.1 x57 - 0.1 x58 + x89 + x90  = 0
r_44: - 0.9 x59 - 0.9 x64 - 0.9 x69 + x91 + x92 + x93 - 1.0 x801 - 1.0 x806 - 1.0 x811  = 0
r_45: - 0.1 x59 + x94 + x95  = 0
r_46: - 0.1 x60 - 0.1 x61 + x96  = 0
r_47: - 0.1 x62 - 0.1 x63 + x97 + x98  = 0
r_48: - 0.1 x64 + x99 + x100  = 0
r_49: - 0.1 x65 - 0.1 x66 + x101  = 0
r_50: - 0.1 x67 - 0.1 x68 + x102 + x103  = 0
r_51: - 0.1 x69 + x104 + x105  = 0
r_52: - 1.0 x70 - 1.0 x83 + x106 + x107  = 0
r_53: - 1.0 x71 - 1.0 x74 - 1.0 x84 - 1.0 x87 + x108 + x109  = 0
r_54: - 1.0 x72 - 1.0 x76 + x110 + x111 - 0.9 x445 - 0.9 x446  = 0
r_55: - 1.0 x73 - 1.0 x86 + x112 + x113  = 0
r_56: - 1.0 x75 - 1.0 x79 - 1.0 x88 - 1.0 x92 + x114 + x115  = 0
r_57: - 1.0 x77 - 1.0 x81 + x116 + x117 - 0.9 x447 - 0.9 x469  = 0
r_58: - 1.0 x78 - 1.0 x91 + x118 + x119  = 0
r_59: - 1.0 x80 - 1.0 x93 + x120 + x121  = 0
r_60: - 1.0 x82 + x122 + x123 - 0.9 x470  = 0
r_61: - 1.0 x85 - 1.0 x89 - 1.0 x96 - 1.0 x97 - 1.0 x101 - 1.0 x102 + x124 + x125 - 0.9 x448 - 0.9 x449 - 0.9 x451 - 0.9 x452 - 0.9 x454 - 0.9 x455  = 0
r_62: - 1.0 x90 - 1.0 x94 - 1.0 x98 - 1.0 x99 - 1.0 x103 - 1.0 x104 + x126 + x127 - 0.9 x450 - 0.9 x453 - 0.9 x456 - 0.9 x471 - 0.9 x473 - 0.9 x475  = 0
r_63: - 1.0 x95 - 1.0 x100 - 1.0 x105 + x128 + x129 - 0.9 x472 - 0.9 x474 - 0.9 x476  = 0
r_64: - 0.7 x106 + x130  = 0
r_65: - 0.3 x106 + x131 + x132  = 0
r_66: - 1.0 x107 - 1.0 x108 + x133 + x134  = 0
r_67: - 1.0 x109 + x135 + x136  = 0
r_68: - 1.0 x110 - 1.0 x124 + x137 + x138  = 0
r_69: - 1.0 x111 - 1.0 x125 + x139 + x140  = 0
r_70: - 0.7 x112 + x141  = 0
r_71: - 0.3 x112 + x142 + x143  = 0
r_72: - 1.0 x113 - 1.0 x114 + x144 + x145  = 0
r_73: - 1.0 x115 + x146 + x147  = 0
r_74: - 1.0 x116 - 1.0 x126 + x148 + x149  = 0
r_75: - 1.0 x117 - 1.0 x127 + x150 + x151  = 0
r_76: - 0.7 x118 + x152  = 0
r_77: - 0.3 x118 + x153 + x154  = 0
r_78: - 1.0 x119 - 1.0 x120 + x155 + x156  = 0
r_79: - 1.0 x121 + x157 + x158  = 0
r_80: - 1.0 x122 - 1.0 x128 + x159 + x160  = 0
r_81: - 1.0 x123 - 1.0 x129 + x161 + x162  = 0
r_82: - 1.0 x130 - 1.0 x131 - 0.7 x133 + x163  = 0
r_83: - 1.0 x132 - 0.3 x133 + x164  = 0
r_84: - 1.0 x134 - 1.0 x135 + x165  = 0
r_85: - 1.0 x136 + x166  = 0
r_86: - 0.7 x137 + x167  = 0
r_87: - 0.3 x137 + x168 + x169  = 0
r_88: - 1.0 x138 - 1.0 x139 + x170 + x171  = 0
r_89: - 1.0 x140 + x172 + x173  = 0
r_90: - 1.0 x141 - 1.0 x142 - 0.7 x144 + x174  = 0
r_91: - 1.0 x143 - 0.3 x144 + x175  = 0
r_92: - 1.0 x145 - 1.0 x146 + x176  = 0
r_93: - 1.0 x147 + x177  = 0
r_94: - 0.7 x148 + x178  = 0
r_95: - 0.3 x148 + x179 + x180  = 0
r_96: - 1.0 x149 - 1.0 x150 + x181 + x182  = 0
r_97: - 1.0 x151 + x183 + x184  = 0
r_98: - 1.0 x152 - 1.0 x153 - 0.7 x155 + x185  = 0
r_99: - 1.0 x154 - 0.3 x155 + x186  = 0
r_100: - 1.0 x156 - 1.0 x157 + x187  = 0
r_101: - 1.0 x158 + x188  = 0
r_102: - 0.7 x159 + x189  = 0
r_103: - 0.3 x159 + x190 + x191  = 0
r_104: - 1.0 x160 - 1.0 x161 + x192 + x193  = 0
r_105: - 1.0 x162 + x194 + x195  = 0
r_106: - 1.0 x163 + x196 + x197  = 0
r_107: - 1.0 x164 + x198 + x199  = 0
r_108: - 1.0 x165 + x200 + x201  = 0
r_109: - 1.0 x166 + x202 + x203  = 0
r_110: - 1.0 x167 - 1.0 x168 - 0.7 x170 + x204 + x205  = 0
r_111: - 1.0 x169 - 0.3 x170 + x206 + x207  = 0
r_112: - 1.0 x171 - 1.0 x172 + x208 + x209  = 0
r_113: - 1.0 x173 + x210 + x211  = 0
r_114: - 1.0 x174 - 1.0 x185 + x212 + x213  = 0
r_115: - 1.0 x175 - 1.0 x186 + x214 + x215  = 0
r_116: - 1.0 x176 - 1.0 x187 + x216 + x217  = 0
r_117: - 1.0 x177 - 1.0 x188 + x218 + x219  = 0
r_118: - 1.0 x178 - 1.0 x179 - 0.7 x181 - 1.0 x189 - 1.0 x190 - 0.7 x192 + x220 + x221  = 0
r_119: - 1.0 x180 - 0.3 x181 - 1.0 x191 - 0.3 x192 + x222 + x223  = 0
r_120: - 1.0 x182 - 1.0 x183 - 1.0 x193 - 1.0 x194 + x224 + x225  = 0
r_121: - 1.0 x184 - 1.0 x195 + x226 + x227  = 0
r_122: - 0.9 x196 - 0.9 x212 + x228 + x229 + x230 - 1.0 x873 - 1.0 x881  = 0
r_123: - 0.1 x196 - 0.1 x212 + x231 + x232  = 0
r_124: - 0.9 x197 - 0.9 x213 + x233 + x234 + x235 - 1.0 x874 - 1.0 x882  = 0
r_125: - 0.1 x197 - 0.1 x213 + x236 + x237  = 0
r_126: - 0.9 x198 - 0.9 x200 - 0.9 x202 - 0.9 x214 - 0.9 x216 - 0.9 x218 + x238 + x239 + x240 - 1.0 x875 - 1.0 x877 - 1.0 x879 - 1.0 x883 - 1.0 x885 - 1.0 x887  = 0
r_127: - 0.1 x198 - 0.1 x214 + x241 + x242  = 0
r_128: - 0.9 x199 - 0.9 x201 - 0.9 x203 - 0.9 x215 - 0.9 x217 - 0.9 x219 + x243 + x244 + x245 - 1.0 x876 - 1.0 x878 - 1.0 x880 - 1.0 x884 - 1.0 x886 - 1.0 x888  = 0
r_129: - 0.1 x199 - 0.1 x215 + x246 + x247  = 0
r_130: - 0.1 x200 - 0.1 x216 + x248 + x249  = 0
r_131: - 0.1 x201 - 0.1 x217 + x250 + x251  = 0
r_132: - 0.1 x202 - 0.1 x218 + x252 + x253  = 0
r_133: - 0.1 x203 - 0.1 x219 + x254 + x255  = 0
r_134: - 1.0 x204 - 1.0 x220 + x256 + x257  = 0
r_135: - 1.0 x205 - 1.0 x221 + x258 + x259  = 0
r_136: - 1.0 x206 - 1.0 x222 + x260 + x261  = 0
r_137: - 1.0 x207 - 1.0 x223 + x262 + x263  = 0
r_138: - 1.0 x208 - 1.0 x224 + x264 + x265  = 0
r_139: - 1.0 x209 - 1.0 x225 + x266 + x267  = 0
r_140: - 1.0 x210 - 1.0 x226 + x268 + x269  = 0
r_141: - 1.0 x211 - 1.0 x227 + x270 + x271  = 0
r_142: - 1.0 x228 - 1.0 x238 + x272 + x273 + x274  = 0
r_143: - 1.0 x229 - 1.0 x239 + x275 + x276  = 0
r_144: - 1.0 x230 - 1.0 x234 - 1.0 x240 - 1.0 x244 + x277 + x278 + x279  = 0
r_145: - 1.0 x231 - 0.9 x256 + x280 + x281  = 0
r_146: - 1.0 x232 - 1.0 x236 - 0.9 x257 - 0.9 x258 + x282 + x283 + x284  = 0
r_147: - 1.0 x233 - 1.0 x243 + x285 + x286 + x287  = 0
r_148: - 1.0 x235 - 1.0 x245 + x288 + x289 + x290  = 0
r_149: - 1.0 x237 - 0.9 x259 + x291 + x292 + x293  = 0
r_150: - 1.0 x241 - 1.0 x248 - 1.0 x252 - 0.9 x260 - 0.9 x264 - 0.9 x268 + x294 + x295  = 0
r_151: - 1.0 x242 - 1.0 x246 - 1.0 x249 - 1.0 x250 - 1.0 x253 - 1.0 x254 - 0.9 x261 - 0.9 x262 - 0.9 x265 - 0.9 x266 - 0.9 x269 - 0.9 x270 + x296 + x297 + x298  = 0
r_152: - 1.0 x247 - 1.0 x251 - 1.0 x255 - 0.9 x263 - 0.9 x267 - 0.9 x271 + x299 + x300 + x301  = 0
r_153: - 0.1 x256 + x302  = 0
r_154: - 0.1 x257 - 0.1 x258 + x303 + x304  = 0
r_155: - 0.1 x259 + x305 + x306  = 0
r_156: - 0.1 x260 + x307  = 0
r_157: - 0.1 x261 - 0.1 x262 + x308 + x309  = 0
r_158: - 0.1 x263 + x310 + x311  = 0
r_159: - 0.1 x264 + x312  = 0
r_160: - 0.1 x265 - 0.1 x266 + x313 + x314  = 0
r_161: - 0.1 x267 + x315 + x316  = 0
r_162: - 0.1 x268 + x317  = 0
r_163: - 0.1 x269 - 0.1 x270 + x318 + x319  = 0
r_164: - 0.1 x271 + x320 + x321  = 0
r_165: - 0.7 x272 + x322 + x323  = 0
r_166: - 0.3 x272 + x324 + x325 + x326  = 0
r_167: - 1.0 x273 - 1.0 x275 + x327 + x328  = 0
r_168: - 1.0 x274 - 1.0 x277 - 1.0 x286 + x329 + x330 + x331  = 0
r_169: - 1.0 x276 - 1.0 x278 + x332 + x333  = 0
r_170: - 1.0 x279 - 1.0 x289 + x334 + x335 + x336  = 0
r_171: - 1.0 x280 - 1.0 x294 + x337 + x338  = 0
r_172: - 1.0 x281 - 1.0 x283 - 1.0 x295 - 1.0 x297 + x339 + x340  = 0
r_173: - 1.0 x282 - 1.0 x296 + x341 + x342 + x343  = 0
r_174: - 1.0 x284 - 1.0 x292 - 1.0 x298 - 1.0 x300 + x344 + x345 + x346  = 0
r_175: - 0.7 x285 + x347 + x348  = 0
r_176: - 0.3 x285 + x349 + x350 + x351  = 0
r_177: - 1.0 x287 - 1.0 x288 + x352 + x353 + x354  = 0
r_178: - 1.0 x290 + x355 + x356 + x357  = 0
r_179: - 1.0 x291 - 1.0 x299 + x358 + x359 + x360  = 0
r_180: - 1.0 x293 - 1.0 x301 + x361 + x362 + x363  = 0
r_181: - 1.0 x302 - 1.0 x303 + x364 + x365 - 0.9 x698 - 0.9 x699  = 0
r_182: - 1.0 x304 - 1.0 x305 + x366 + x367 + x368 - 0.9 x700 - 0.9 x701  = 0
r_183: - 1.0 x306 + x369 + x370 + x371 - 0.9 x702  = 0
r_184: - 1.0 x307 - 1.0 x308 - 1.0 x312 - 1.0 x313 - 1.0 x317 - 1.0 x318 + x372 + x373 - 0.9 x703 - 0.9 x704 - 0.9 x708 - 0.9 x709 - 0.9 x713 - 0.9 x714  = 0
r_185: - 1.0 x309 - 1.0 x310 - 1.0 x314 - 1.0 x315 - 1.0 x319 - 1.0 x320 + x374 + x375 + x376 - 0.9 x705 - 0.9 x706 - 0.9 x710 - 0.9 x711 - 0.9 x715 - 0.9 x716  = 0
r_186: - 1.0 x311 - 1.0 x316 - 1.0 x321 + x377 + x378 + x379 - 0.9 x707 - 0.9 x712 - 0.9 x717  = 0
r_187: - 1.0 x322 - 0.7 x327 + x380  = 0
r_188: - 1.0 x323 - 1.0 x324 - 0.7 x329 - 1.0 x347 + x381 + x382  = 0
r_189: - 1.0 x325 - 0.3 x327 + x383  = 0
r_190: - 1.0 x326 - 0.3 x329 - 1.0 x350 + x384 + x385  = 0
r_191: - 1.0 x328 - 1.0 x330 - 1.0 x332 + x386  = 0
r_192: - 1.0 x331 - 1.0 x334 - 1.0 x353 + x387 + x388  = 0
r_193: - 1.0 x333 - 1.0 x335 + x389  = 0
r_194: - 1.0 x336 - 1.0 x356 + x390 + x391  = 0
r_195: - 0.7 x337 + x392  = 0
r_196: - 0.3 x337 + x393 + x394  = 0
r_197: - 1.0 x338 - 1.0 x339 - 1.0 x342 + x395 + x396  = 0
r_198: - 1.0 x340 - 1.0 x345 + x397 + x398  = 0
r_199: - 0.7 x341 + x399 + x400  = 0
r_200: - 0.3 x341 + x401 + x402 + x403  = 0
r_201: - 1.0 x343 - 1.0 x344 - 1.0 x359 + x404 + x405 + x406  = 0
r_202: - 1.0 x346 - 1.0 x362 + x407 + x408 + x409  = 0
r_203: - 1.0 x348 - 1.0 x349 - 0.7 x352 + x410 + x411  = 0
r_204: - 1.0 x351 - 0.3 x352 + x412 + x413  = 0
r_205: - 1.0 x354 - 1.0 x355 + x414 + x415  = 0
r_206: - 1.0 x357 + x416 + x417  = 0
r_207: - 0.7 x358 + x418 + x419  = 0
r_208: - 0.3 x358 + x420 + x421 + x422  = 0
r_209: - 1.0 x360 - 1.0 x361 + x423 + x424 + x425  = 0
r_210: - 1.0 x363 + x426 + x427 + x428  = 0
r_211: - 1.0 x364 - 1.0 x372 + x429 + x430  = 0
r_212: - 1.0 x365 - 1.0 x367 - 1.0 x373 - 1.0 x375 + x431 + x432  = 0
r_213: - 1.0 x366 - 1.0 x374 + x433 + x434 + x435  = 0
r_214: - 1.0 x368 - 1.0 x370 - 1.0 x376 - 1.0 x378 + x436 + x437 + x438  = 0
r_215: - 1.0 x369 - 1.0 x377 + x439 + x440 + x441  = 0
r_216: - 1.0 x371 - 1.0 x379 + x442 + x443 + x444  = 0
r_217: - 1.0 x380 - 1.0 x381 + x445  = 0
r_218: - 1.0 x382 - 1.0 x410 + x446 + x447  = 0
r_219: - 1.0 x383 - 1.0 x384 + x448  = 0
r_220: - 1.0 x385 - 1.0 x412 + x449 + x450  = 0
r_221: - 1.0 x386 - 1.0 x387 + x451  = 0
r_222: - 1.0 x388 - 1.0 x414 + x452 + x453  = 0
r_223: - 1.0 x389 - 1.0 x390 + x454  = 0
r_224: - 1.0 x391 - 1.0 x416 + x455 + x456  = 0
r_225: - 1.0 x392 - 1.0 x393 - 0.7 x395 - 1.0 x399 + x457  = 0
r_226: - 1.0 x394 - 0.3 x395 - 1.0 x402 + x458  = 0
r_227: - 1.0 x396 - 1.0 x397 - 1.0 x405 + x459  = 0
r_228: - 1.0 x398 - 1.0 x408 + x460  = 0
r_229: - 1.0 x400 - 1.0 x401 - 0.7 x404 - 1.0 x418 + x461 + x462  = 0
r_230: - 1.0 x403 - 0.3 x404 - 1.0 x421 + x463 + x464  = 0
r_231: - 1.0 x406 - 1.0 x407 - 1.0 x424 + x465 + x466  = 0
r_232: - 1.0 x409 - 1.0 x427 + x467 + x468  = 0
r_233: - 1.0 x411 + x469 + x470  = 0
r_234: - 1.0 x413 + x471 + x472  = 0
r_235: - 1.0 x415 + x473 + x474  = 0
r_236: - 1.0 x417 + x475 + x476  = 0
r_237: - 1.0 x419 - 1.0 x420 - 0.7 x423 + x477 + x478  = 0
r_238: - 1.0 x422 - 0.3 x423 + x479 + x480  = 0
r_239: - 1.0 x425 - 1.0 x426 + x481 + x482  = 0
r_240: - 1.0 x428 + x483 + x484  = 0
r_241: - 0.7 x429 + x485  = 0
r_242: - 0.3 x429 + x486 + x487  = 0
r_243: - 1.0 x430 - 1.0 x431 - 1.0 x434 + x488 + x489  = 0
r_244: - 1.0 x432 - 1.0 x437 + x490 + x491  = 0
r_245: - 0.7 x433 + x492 + x493  = 0
r_246: - 0.3 x433 + x494 + x495 + x496  = 0
r_247: - 1.0 x435 - 1.0 x436 - 1.0 x440 + x497 + x498 + x499  = 0
r_248: - 1.0 x438 - 1.0 x443 + x500 + x501 + x502  = 0
r_249: - 0.7 x439 + x503 + x504  = 0
r_250: - 0.3 x439 + x505 + x506 + x507  = 0
r_251: - 1.0 x441 - 1.0 x442 + x508 + x509 + x510  = 0
r_252: - 1.0 x444 + x511 + x512 + x513  = 0
r_253: - 0.1 x445 - 0.1 x446 + x514  = 0
r_254: - 0.1 x447 - 0.1 x469 + x515  = 0
r_255: - 0.1 x448 - 0.1 x449 + x516  = 0
r_256: - 0.1 x450 - 0.1 x471 + x517  = 0
r_257: - 0.1 x451 - 0.1 x452 + x518  = 0
r_258: - 0.1 x453 - 0.1 x473 + x519  = 0
r_259: - 0.1 x454 - 0.1 x455 + x520  = 0
r_260: - 0.1 x456 - 0.1 x475 + x521  = 0
r_261: - 1.0 x457 - 1.0 x461 + x522  = 0
r_262: - 1.0 x458 - 1.0 x463 + x523  = 0
r_263: - 1.0 x459 - 1.0 x465 + x524  = 0
r_264: - 1.0 x460 - 1.0 x467 + x525  = 0
r_265: - 1.0 x462 - 1.0 x477 + x526  = 0
r_266: - 1.0 x464 - 1.0 x479 + x527  = 0
r_267: - 1.0 x466 - 1.0 x481 + x528  = 0
r_268: - 1.0 x468 - 1.0 x483 + x529  = 0
r_269: - 0.1 x470 + x530  = 0
r_270: - 0.1 x472 + x531  = 0
r_271: - 0.1 x474 + x532  = 0
r_272: - 0.1 x476 + x533  = 0
r_273: - 1.0 x478 + x534  = 0
r_274: - 1.0 x480 + x535  = 0
r_275: - 1.0 x482 + x536  = 0
r_276: - 1.0 x484 + x537  = 0
r_277: - 1.0 x485 - 1.0 x486 - 0.7 x488 - 1.0 x492 + x538  = 0
r_278: - 1.0 x487 - 0.3 x488 - 1.0 x495 + x539  = 0
r_279: - 1.0 x489 - 1.0 x490 - 1.0 x498 + x540  = 0
r_280: - 1.0 x491 - 1.0 x501 + x541  = 0
r_281: - 1.0 x493 - 1.0 x494 - 0.7 x497 - 1.0 x503 + x542  = 0
r_282: - 1.0 x496 - 0.3 x497 - 1.0 x506 + x543  = 0
r_283: - 1.0 x499 - 1.0 x500 - 1.0 x509 + x544  = 0
r_284: - 1.0 x502 - 1.0 x512 + x545  = 0
r_285: - 1.0 x504 - 1.0 x505 - 0.7 x508 + x546  = 0
r_286: - 1.0 x507 - 0.3 x508 + x547  = 0
r_287: - 1.0 x510 - 1.0 x511 + x548  = 0
r_288: - 1.0 x513 + x549  = 0
r_289: - 1.0 x514 - 0.9 x522 + x550 + x551  = 0
r_290: - 1.0 x515 - 0.9 x526 + x552 + x553  = 0
r_291: - 1.0 x516 - 1.0 x518 - 1.0 x520 - 0.9 x523 - 0.9 x524 - 0.9 x525 + x554 + x555  = 0
r_292: - 1.0 x517 - 1.0 x519 - 1.0 x521 - 0.9 x527 - 0.9 x528 - 0.9 x529 + x556 + x557  = 0
r_293: - 0.1 x522 + x558  = 0
r_294: - 0.1 x523 + x559  = 0
r_295: - 0.1 x524 + x560  = 0
r_296: - 0.1 x525 + x561  = 0
r_297: - 0.1 x526 + x562  = 0
r_298: - 0.1 x527 + x563  = 0
r_299: - 0.1 x528 + x564  = 0
r_300: - 0.1 x529 + x565  = 0
r_301: - 1.0 x530 - 0.9 x534 + x566 + x567  = 0
r_302: - 1.0 x531 - 1.0 x532 - 1.0 x533 - 0.9 x535 - 0.9 x536 - 0.9 x537 + x568 + x569  = 0
r_303: - 0.1 x534 + x570  = 0
r_304: - 0.1 x535 + x571  = 0
r_305: - 0.1 x536 + x572  = 0
r_306: - 0.1 x537 + x573  = 0
r_307: - 1.0 x538 + x574  = 0
r_308: - 1.0 x539 + x575  = 0
r_309: - 1.0 x540 + x576  = 0
r_310: - 1.0 x541 + x577  = 0
r_311: - 1.0 x542 + x578  = 0
r_312: - 1.0 x543 + x579  = 0
r_313: - 1.0 x544 + x580  = 0
r_314: - 1.0 x545 + x581  = 0
r_315: - 1.0 x546 + x582  = 0
r_316: - 1.0 x547 + x583  = 0
r_317: - 1.0 x548 + x584  = 0
r_318: - 1.0 x549 + x585  = 0
r_319: - 1.0 x550 - 1.0 x554 + x586 + x587  = 0
r_320: - 1.0 x551 - 1.0 x555 + x588 + x589  = 0
r_321: - 1.0 x552 - 1.0 x556 + x590 + x591  = 0
r_322: - 1.0 x553 - 1.0 x557 + x592 + x593  = 0
r_323: - 1.0 x558 - 0.9 x574 + x594 + x595  = 0
r_324: - 1.0 x559 - 1.0 x560 - 1.0 x561 - 0.9 x575 - 0.9 x576 - 0.9 x577 + x596 + x597  = 0
r_325: - 1.0 x562 - 0.9 x578 + x598 + x599  = 0
r_326: - 1.0 x563 - 1.0 x564 - 1.0 x565 - 0.9 x579 - 0.9 x580 - 0.9 x581 + x600 + x601  = 0
r_327: - 1.0 x566 - 1.0 x568 + x602 + x603  = 0
r_328: - 1.0 x567 - 1.0 x569 + x604 + x605  = 0
r_329: - 1.0 x570 - 0.9 x582 + x606 + x607  = 0
r_330: - 1.0 x571 - 1.0 x572 - 1.0 x573 - 0.9 x583 - 0.9 x584 - 0.9 x585 + x608 + x609  = 0
r_331: - 0.1 x574 + x610  = 0
r_332: - 0.1 x575 + x611  = 0
r_333: - 0.1 x576 + x612  = 0
r_334: - 0.1 x577 + x613  = 0
r_335: - 0.1 x578 + x614  = 0
r_336: - 0.1 x579 + x615  = 0
r_337: - 0.1 x580 + x616  = 0
r_338: - 0.1 x581 + x617  = 0
r_339: - 0.1 x582 + x618  = 0
r_340: - 0.1 x583 + x619  = 0
r_341: - 0.1 x584 + x620  = 0
r_342: - 0.1 x585 + x621  = 0
r_343: - 0.7 x586 + x622 + x623  = 0
r_344: - 0.3 x586 + x624 + x625 + x626  = 0
r_345: - 1.0 x587 - 1.0 x588 + x627 + x628 + x629  = 0
r_346: - 1.0 x589 + x630 + x631 + x632  = 0
r_347: - 0.7 x590 - 0.7 x602 + x633 + x634  = 0
r_348: - 0.3 x590 - 0.3 x602 + x635 + x636 + x637  = 0
r_349: - 1.0 x591 - 1.0 x592 - 1.0 x603 - 1.0 x604 + x638 + x639 + x640  = 0
r_350: - 1.0 x593 - 1.0 x605 + x641 + x642 + x643  = 0
r_351: - 1.0 x594 - 1.0 x596 + x644 + x645 + x646  = 0
r_352: - 1.0 x595 - 1.0 x597 + x647 + x648 + x649  = 0
r_353: - 1.0 x598 - 1.0 x600 - 1.0 x606 - 1.0 x608 + x650 + x651 + x652  = 0
r_354: - 1.0 x599 - 1.0 x601 - 1.0 x607 - 1.0 x609 + x653 + x654 + x655  = 0
r_355: - 1.0 x611 - 1.0 x612 - 1.0 x613 + x656 + x657 + x658 - 0.9 x862 - 0.9 x863 - 0.9 x864  = 0
r_356: - 1.0 x614 - 1.0 x618 + x659 + x660 + x661 - 0.9 x865 - 0.9 x869  = 0
r_357: - 1.0 x615 - 1.0 x616 - 1.0 x617 - 1.0 x619 - 1.0 x620 - 1.0 x621 + x662 + x663 + x664 - 0.9 x866 - 0.9 x867 - 0.9 x868 - 0.9 x870 - 0.9 x871 - 0.9 x872  = 0
r_358: - 1.0 x622 - 1.0 x633 + x665 + x666  = 0
r_359: - 1.0 x623 - 1.0 x624 - 0.7 x627 - 1.0 x634 - 1.0 x635 - 0.7 x638 + x667 + x668  = 0
r_360: - 1.0 x625 - 1.0 x636 + x669 + x670  = 0
r_361: - 1.0 x626 - 0.3 x627 - 1.0 x637 - 0.3 x638 + x671 + x672  = 0
r_362: - 1.0 x628 - 1.0 x639 + x673 + x674  = 0
r_363: - 1.0 x629 - 1.0 x630 - 1.0 x640 - 1.0 x641 + x675 + x676  = 0
r_364: - 1.0 x631 - 1.0 x642 + x677 + x678  = 0
r_365: - 1.0 x632 - 1.0 x643 + x679 + x680  = 0
r_366: - 0.7 x644 - 0.7 x650 + x681 + x682  = 0
r_367: - 0.3 x644 - 0.3 x650 + x683 + x684 + x685  = 0
r_368: - 1.0 x645 - 1.0 x651 + x686 + x687 + x688  = 0
r_369: - 1.0 x646 - 1.0 x647 - 1.0 x652 - 1.0 x653 + x689 + x690 + x691  = 0
r_370: - 1.0 x648 - 1.0 x654 + x692 + x693 + x694  = 0
r_371: - 1.0 x649 - 1.0 x655 + x695 + x696 + x697  = 0
r_372: - 1.0 x665 + x698  = 0
r_373: - 1.0 x666 - 1.0 x667 + x699 + x700  = 0
r_374: - 1.0 x668 + x701 + x702  = 0
r_375: - 1.0 x669 + x703  = 0
r_376: - 1.0 x670 - 1.0 x671 + x704 + x705  = 0
r_377: - 1.0 x672 + x706 + x707  = 0
r_378: - 1.0 x673 + x708  = 0
r_379: - 1.0 x674 - 1.0 x675 + x709 + x710  = 0
r_380: - 1.0 x676 + x711 + x712  = 0
r_381: - 1.0 x677 + x713  = 0
r_382: - 1.0 x678 - 1.0 x679 + x714 + x715  = 0
r_383: - 1.0 x680 + x716 + x717  = 0
r_384: - 1.0 x681 - 0.7 x686 + x718 + x719  = 0
r_385: - 1.0 x682 - 1.0 x683 - 0.7 x689 + x720 + x721  = 0
r_386: - 1.0 x684 - 0.3 x686 + x722 + x723  = 0
r_387: - 1.0 x685 - 0.3 x689 + x724 + x725  = 0
r_388: - 1.0 x687 + x726  = 0
r_389: - 1.0 x688 - 1.0 x690 - 1.0 x692 + x727 + x728  = 0
r_390: - 1.0 x691 - 1.0 x695 + x729 + x730  = 0
r_391: - 1.0 x693 + x731  = 0
r_392: - 1.0 x694 - 1.0 x696 + x732 + x733  = 0
r_393: - 1.0 x697 + x734 + x735  = 0
r_394: - 0.1 x698 - 0.1 x699 + x736  = 0
r_395: - 0.1 x700 - 0.1 x701 + x737 + x738  = 0
r_396: - 0.1 x702 + x739 + x740  = 0
r_397: - 0.1 x703 - 0.1 x704 + x741  = 0
r_398: - 0.1 x705 - 0.1 x706 + x742 + x743  = 0
r_399: - 0.1 x707 + x744 + x745  = 0
r_400: - 0.1 x708 - 0.1 x709 + x746  = 0
r_401: - 0.1 x710 - 0.1 x711 + x747 + x748  = 0
r_402: - 0.1 x712 + x749 + x750  = 0
r_403: - 0.1 x713 - 0.1 x714 + x751  = 0
r_404: - 0.1 x715 - 0.1 x716 + x752 + x753  = 0
r_405: - 0.1 x717 + x754 + x755  = 0
r_406: - 1.0 x718 + x756  = 0
r_407: - 1.0 x719 - 1.0 x720 + x757 + x758  = 0
r_408: - 1.0 x721 + x759 + x760  = 0
r_409: - 1.0 x722 + x761  = 0
r_410: - 1.0 x723 - 1.0 x724 + x762 + x763  = 0
r_411: - 1.0 x725 + x764 + x765  = 0
r_412: - 1.0 x726 - 1.0 x727 + x766  = 0
r_413: - 1.0 x728 - 1.0 x729 + x767 + x768  = 0
r_414: - 1.0 x730 + x769 + x770  = 0
r_415: - 1.0 x731 - 1.0 x732 + x771  = 0
r_416: - 1.0 x733 - 1.0 x734 + x772 + x773  = 0
r_417: - 1.0 x735 + x774 + x775  = 0
r_418: - 1.0 x736 - 1.0 x737 - 0.9 x756 - 0.9 x757 + x776 + x777  = 0
r_419: - 1.0 x738 - 1.0 x739 - 0.9 x758 - 0.9 x759 + x778 + x779 + x780  = 0
r_420: - 1.0 x740 - 0.9 x760 + x781 + x782 + x783  = 0
r_421: - 1.0 x741 - 1.0 x742 - 1.0 x746 - 1.0 x747 - 1.0 x751 - 1.0 x752 - 0.9 x761 - 0.9 x762 - 0.9 x766 - 0.9 x767 - 0.9 x771 - 0.9 x772 + x784 + x785  = 0
r_422: - 1.0 x743 - 1.0 x744 - 1.0 x748 - 1.0 x749 - 1.0 x753 - 1.0 x754 - 0.9 x763 - 0.9 x764 - 0.9 x768 - 0.9 x769 - 0.9 x773 - 0.9 x774 + x786 + x787 + x788  = 0
r_423: - 1.0 x745 - 1.0 x750 - 1.0 x755 - 0.9 x765 - 0.9 x770 - 0.9 x775 + x789 + x790 + x791  = 0
r_424: - 0.1 x756 - 0.1 x757 + x792  = 0
r_425: - 0.1 x758 - 0.1 x759 + x793 + x794  = 0
r_426: - 0.1 x760 + x795 + x796  = 0
r_427: - 0.1 x761 - 0.1 x762 + x797  = 0
r_428: - 0.1 x763 - 0.1 x764 + x798 + x799  = 0
r_429: - 0.1 x765 + x800 + x801  = 0
r_430: - 0.1 x766 - 0.1 x767 + x802  = 0
r_431: - 0.1 x768 - 0.1 x769 + x803 + x804  = 0
r_432: - 0.1 x770 + x805 + x806  = 0
r_433: - 0.1 x771 - 0.1 x772 + x807  = 0
r_434: - 0.1 x773 - 0.1 x774 + x808 + x809  = 0
r_435: - 0.1 x775 + x810 + x811  = 0
r_436: - 1.0 x776 - 1.0 x784 + x812 + x813  = 0
r_437: - 1.0 x777 - 1.0 x779 - 1.0 x785 - 1.0 x787 + x814 + x815  = 0
r_438: - 1.0 x778 - 1.0 x786 + x816 + x817 + x818  = 0
r_439: - 1.0 x780 - 1.0 x782 - 1.0 x788 - 1.0 x790 + x819 + x820 + x821  = 0
r_440: - 1.0 x781 - 1.0 x789 + x822 + x823 + x824  = 0
r_441: - 1.0 x783 - 1.0 x791 + x825 + x826 + x827  = 0
r_442: - 0.7 x812 + x828  = 0
r_443: - 0.3 x812 + x829 + x830  = 0
r_444: - 1.0 x813 - 1.0 x814 - 1.0 x817 + x831 + x832  = 0
r_445: - 1.0 x815 - 1.0 x820 + x833 + x834  = 0
r_446: - 0.7 x816 + x835  = 0
r_447: - 0.3 x816 + x836 + x837  = 0
r_448: - 1.0 x818 - 1.0 x819 - 1.0 x823 + x838 + x839  = 0
r_449: - 1.0 x821 - 1.0 x826 + x840 + x841  = 0
r_450: - 0.7 x822 + x842  = 0
r_451: - 0.3 x822 + x843 + x844  = 0
r_452: - 1.0 x824 - 1.0 x825 + x845 + x846  = 0
r_453: - 1.0 x827 + x847 + x848  = 0
r_454: - 1.0 x828 - 1.0 x829 - 0.7 x831 + x849  = 0
r_455: - 1.0 x830 - 0.3 x831 + x850  = 0
r_456: - 1.0 x832 - 1.0 x833 + x851  = 0
r_457: - 1.0 x834 + x852  = 0
r_458: - 1.0 x835 - 1.0 x836 - 0.7 x838 + x853  = 0
r_459: - 1.0 x837 - 0.3 x838 + x854  = 0
r_460: - 1.0 x839 - 1.0 x840 + x855  = 0
r_461: - 1.0 x841 + x856  = 0
r_462: - 1.0 x842 - 1.0 x843 - 0.7 x845 + x857  = 0
r_463: - 1.0 x844 - 0.3 x845 + x858  = 0
r_464: - 1.0 x846 - 1.0 x847 + x859  = 0
r_465: - 1.0 x848 + x860  = 0
r_466: - 1.0 x849 + x861  = 0
r_467: - 1.0 x850 + x862  = 0
r_468: - 1.0 x851 + x863  = 0
r_469: - 1.0 x852 + x864  = 0
r_470: - 1.0 x853 + x865  = 0
r_471: - 1.0 x854 + x866  = 0
r_472: - 1.0 x855 + x867  = 0
r_473: - 1.0 x856 + x868  = 0
r_474: - 1.0 x857 + x869  = 0
r_475: - 1.0 x858 + x870  = 0
r_476: - 1.0 x859 + x871  = 0
r_477: - 1.0 x860 + x872  = 0
r_478: - 0.1 x861 + x873 + x874  = 0
r_479: - 0.1 x862 + x875 + x876  = 0
r_480: - 0.1 x863 + x877 + x878  = 0
r_481: - 0.1 x864 + x879 + x880  = 0
r_482: - 0.1 x865 - 0.1 x869 + x881 + x882  = 0
r_483: - 0.1 x866 - 0.1 x870 + x883 + x884  = 0
r_484: - 0.1 x867 - 0.1 x871 + x885 + x886  = 0
r_485: - 0.1 x868 - 0.1 x872 + x887 + x888  = 0
r_00: + x1 + x2 + x3 + x4 + x5 + x6 + x7 + x8 + x9 + x10 + x11 + x12 + x13 + x14 + x15 + x16 + x17 + x18 + x19 + x20 + x21 + x22 + x23 + x24 + x25 + x26 + x27 + x28 + x29 + x30 + x31 + x32 + x33 + x34 + x35 + x36 + x37 + x38 + x39 + x40 + x41 + x42 + x43 + x44 + x45 + x46 + x47 + x48 + x49 + x50 + x51 + x52 + x53 + x54 + x55 + x56 + x57 + x58 + x59 + x60 + x61 + x62 + x63 + x64 + x65 + x66 + x67 + x68 + x69 + x70 + x71 + x72 + x73 + x74 + x75 + x76 + x77 + x78 + x79 + x80 + x81 + x82 + x83 + x84 + x85 + x86 + x87 + x88 + x89 + x90 + x91 + x92 + x93 + x94 + x95 + x96 + x97 + x98 + x99 + x100 + x101 + x102 + x103 + x104 + x105 + x106 + x107 + x108 + x109 + x110 + x111 + x112 + x113 + x114 + x115 + x116 + x117 + x118 + x119 + x120 + x121 + x122 + x123 + x124 + x125 + x126 + x127 + x128 + x129 + x130 + x131 + x132 + x133 + x134 + x135 + x136 + x137 + x138 + x139 + x140 + x141 + x142 + x143 + x144 + x145 + x146 + x147 + x148 + x149 + x150 + x151 + x152 + x153 + x154 + x155 + x156 + x157 + x158 + x159 + x160 + x161 + x162 + x163 + x164 + x165 + x166 + x167 + x168 + x169 + x170 + x171 + x172 + x173 + x174 + x175 + x176 + x177 + x178 + x179 + x180 + x181 + x182 + x183 + x184 + x185 + x186 + x187 + x188 + x189 + x190 + x191 + x192 + x193 + x194 + x195 + x196 + x197 + x198 + x199 + x200 + x201 + x202 + x203 + x204 + x205 + x206 + x207 + x208 + x209 + x210 + x211 + x212 + x213 + x214 + x215 + x216 + x217 + x218 + x219 + x220 + x221 + x222 + x223 + x224 + x225 + x226 + x227 + x228 + x229 + x230 + x231 + x232 + x233 + x234 + x235 + x236 + x237 + x238 + x239 + x240 + x241 + x242 + x243 + x244 + x245 + x246 + x247 + x248 + x249 + x250 + x251 + x252 + x253 + x254 + x255 + x256 + x257 + x258 + x259 + x260 + x261 + x262 + x263 + x264 + x265 + x266 + x267 + x268 + x269 + x270 + x271 + x272 + x273 + x274 + x275 + x276 + x277 + x278 + x279 + x280 + x281 + x282 + x283 + x284 + x285 + x286 + x287 + x288 + x289 + x290 + x291 + x292 + x293 + x294 + x295 + x296 + x297 + x298 + x299 + x300 + x301 + x302 + x303 + x304 + x305 + x306 + x307 + x308 + x309 + x310 + x311 + x312 + x313 + x314 + x315 + x316 + x317 + x318 + x319 + x320 + x321 + x322 + x323 + x324 + x325 + x326 + x327 + x328 + x329 + x330 + x331 + x332 + x333 + x334 + x335 + x336 + x337 + x338 + x339 + x340 + x341 + x342 + x343 + x344 + x345 + x346 + x347 + x348 + x349 + x350 + x351 + x352 + x353 + x354 + x355 + x356 + x357 + x358 + x359 + x360 + x361 + x362 + x363 + x364 + x365 + x366 + x367 + x368 + x369 + x370 + x371 + x372 + x373 + x374 + x375 + x376 + x377 + x378 + x379 + x380 + x381 + x382 + x383 + x384 + x385 + x386 + x387 + x388 + x389 + x390 + x391 + x392 + x393 + x394 + x395 + x396 + x397 + x398 + x399 + x400 + x401 + x402 + x403 + x404 + x405 + x406 + x407 + x408 + x409 + x410 + x411 + x412 + x413 + x414 + x415 + x416 + x417 + x418 + x419 + x420 + x421 + x422 + x423 + x424 + x425 + x426 + x427 + x428 + x429 + x430 + x431 + x432 + x433 + x434 + x435 + x436 + x437 + x438 + x439 + x440 + x441 + x442 + x443 + x444 + x445 + x446 + x447 + x448 + x449 + x450 + x451 + x452 + x453 + x454 + x455 + x456 + x457 + x458 + x459 + x460 + x461 + x462 + x463 + x464 + x465 + x466 + x467 + x468 + x469 + x470 + x471 + x472 + x473 + x474 + x475 + x476 + x477 + x478 + x479 + x480 + x481 + x482 + x483 + x484 + x485 + x486 + x487 + x488 + x489 + x490 + x491 + x492 + x493 + x494 + x495 + x496 + x497 + x498 + x499 + x500 + x501 + x502 + x503 + x504 + x505 + x506 + x507 + x508 + x509 + x510 + x511 + x512 + x513 + x514 + x515 + x516 + x517 + x518 + x519 + x520 + x521 + x522 + x523 + x524 + x525 + x526 + x527 + x528 + x529 + x530 + x531 + x532 + x533 + x534 + x535 + x536 + x537 + x538 + x539 + x540 + x541 + x542 + x543 + x544 + x545 + x546 + x547 + x548 + x549 + x550 + x551 + x552 + x553 + x554 + x555 + x556 + x557 + x558 + x559 + x560 + x561 + x562 + x563 + x564 + x565 + x566 + x567 + x568 + x569 + x570 + x571 + x572 + x573 + x574 + x575 + x576 + x577 + x578 + x579 + x580 + x581 + x582 + x583 + x584 + x585 + x586 + x587 + x588 + x589 + x590 + x591 + x592 + x593 + x594 + x595 + x596 + x597 + x598 + x599 + x600 + x601 + x602 + x603 + x604 + x605 + x606 + x607 + x608 + x609 + x610 + x611 + x612 + x613 + x614 + x615 + x616 + x617 + x618 + x619 + x620 + x621 + x622 + x623 + x624 + x625 + x626 + x627 + x628 + x629 + x630 + x631 + x632 + x633 + x634 + x635 + x636 + x637 + x638 + x639 + x640 + x641 + x642 + x643 + x644 + x645 + x646 + x647 + x648 + x649 + x650 + x651 + x652 + x653 + x654 + x655 + x656 + x657 + x658 + x659 + x660 + x661 + x662 + x663 + x664 + x665 + x666 + x667 + x668 + x669 + x670 + x671 + x672 + x673 + x674 + x675 + x676 + x677 + x678 + x679 + x680 + x681 + x682 + x683 + x684 + x685 + x686 + x687 + x688 + x689 + x690 + x691 + x692 + x693 + x694 + x695 + x696 + x697 + x698 + x699 + x700 + x701 + x702 + x703 + x704 + x705 + x706 + x707 + x708 + x709 + x710 + x711 + x712 + x713 + x714 + x715 + x716 + x717 + x718 + x719 + x720 + x721 + x722 + x723 + x724 + x725 + x726 + x727 + x728 + x729 + x730 + x731 + x732 + x733 + x734 + x735 + x736 + x737 + x738 + x739 + x740 + x741 + x742 + x743 + x744 + x745 + x746 + x747 + x748 + x749 + x750 + x751 + x752 + x753 + x754 + x755 + x756 + x757 + x758 + x759 + x760 + x761 + x762 + x763 + x764 + x765 + x766 + x767 + x768 + x769 + x770 + x771 + x772 + x773 + x774 + x775 + x776 + x777 + x778 + x779 + x780 + x781 + x782 + x783 + x784 + x785 + x786 + x787 + x788 + x789 + x790 + x791 + x792 + x793 + x794 + x795 + x796 + x797 + x798 + x799 + x800 + x801 + x802 + x803 + x804 + x805 + x806 + x807 + x808 + x809 + x810 + x811 + x812 + x813 + x814 + x815 + x816 + x817 + x818 + x819 + x820 + x821 + x822 + x823 + x824 + x825 + x826 + x827 + x828 + x829 + x830 + x831 + x832 + x833 + x834 + x835 + x836 + x837 + x838 + x839 + x840 + x841 + x842 + x843 + x844 + x845 + x846 + x847 + x848 + x849 + x850 + x851 + x852 + x853 + x854 + x855 + x856 + x857 + x858 + x859 + x860 + x861 + x862 + x863 + x864 + x865 + x866 + x867 + x868 + x869 + x870 + x871 + x872 + x873 + x874 + x875 + x876 + x877 + x878 + x879 + x880 + x881 + x882 + x883 + x884 + x885 + x886 + x887 + x888 = 1
End