TasksSet/soft3.txt
# first_arrival|exe_time_dist|deadline|period_dist
---------------------
# soft tasks
# first_arrival|exe_time_dist|deadline|period_dist|cost
0|[2,.7;3,.3]|3|[5,.9;6,.1]|3
0|[2,1]|6|[9,1]|7
